2525872527292573067504,7,1,2,014,2,1,2,014,3,1,2,01,1,1,2,014,4,1,2,04,14,1,2,07,8,1,2,03,8,1,2,012,13,1,2,011,3,1,2,010,13,1,2,01,9,1,2,011,15,1,2,014,10,1,2,013,7,1,2,011,1,1,2,013,15,1,2,06,9,1,2,011,6,1,2,01,13,1,2,03,9,1,2,07,6,1,2,012,13,1,2,02,10,1,2,07,12,1,2,08,11,1,2,014,7,1,2,09,7,1,2,015,14,1,2,012,1,1,2,06,13,1,2,013,1,1,2,09,11,1,2,013,3,1,2,04,13,1,2,014,14,1,2,02,11,1,2,015,8,1,2,014,10,1,2,014,5,1,2,03,12,1,2,014,2,1,2,01,6,1,2,011,10,1,2,013,10,1,2,05,10,1,2,015,14,1,2,012,3,1,2,014,7,1,2,06,1,1,2,0